c random cnf
p cnf 50 50
-40 43 0
-14 29 0
-7 18 0
23 25 0
-29 41 0
29 38 0
-14 -39 0
32 -45 0
-10 49 0
-44 -46 0
-4 43 0
-9 46 0
28 45 0
-2 -20 0
1 13 0
10 38 0
-11 15 0
2 -14 0
-2 -18 0
30 49 0
-8 -44 0
-35 46 0
7 -34 0
45 -47 0
-10 -34 0
18 45 0
2 37 0
15 -30 0
20 32 0
-5 19 0
25 -44 0
7 -22 0
-8 -23 0
-5 18 0
33 -41 0
-24 -30 0
-14 -44 0
25 46 0
-14 24 0
10 42 0
-19 49 0
39 45 0
27 -38 0
45 -49 0
-43 -48 0
-31 -36 0
-38 48 0
-2 -39 0
1 17 0
-37 48 0
